p cnf 125 438
1 2 -3 0
-1 -2 -3 0
1 -2 3 0
-1 2 3 0
5 4 0
5 4 0
-4 -5 0
-3 5 -6 0
3 -5 -6 0
-3 -5 6 0
3 5 6 0
7 -8 0
-7 -8 0
-9 10 -11 0
9 -10 -11 0
-9 -10 11 0
9 10 11 0
-8 -11 -12 0
8 11 -12 0
-8 11 12 0
8 -11 12 0
-14 -12 0
-14 -13 0
12 13 14 0
-13 -9 -15 0
13 9 -15 0
-13 9 15 0
13 -9 15 0
-10 -16 -17 0
10 16 -17 0
-10 16 17 0
10 -16 17 0
18 -15 0
18 17 0
15 -17 -18 0
-18 -10 -19 0
18 10 -19 0
-18 10 19 0
18 -10 19 0
21 -20 0
21 -16 0
20 16 -21 0
17 21 -22 0
-17 -21 -22 0
17 -21 22 0
-17 21 22 0
-23 22 0
-23 1 0
-22 -1 23 0
24 19 0
24 -23 0
-19 23 -24 0
-18 19 -25 0
18 -19 -25 0
-18 -19 25 0
18 19 25 0
24 -25 -26 0
-24 25 -26 0
24 25 26 0
-24 -25 26 0
-26 9 -27 0
26 -9 -27 0
-26 -9 27 0
26 9 27 0
29 13 0
29 -28 0
-13 28 -29 0
30 -23 0
30 29 0
23 -29 -30 0
32 29 0
32 -31 0
-29 31 -32 0
33 -32 0
33 32 0
-34 30 0
-34 33 0
-30 -33 34 0
-27 34 -35 0
27 -34 -35 0
-27 -34 35 0
27 34 35 0
14 -35 -36 0
-14 35 -36 0
14 35 36 0
-14 -35 36 0
1 -37 -38 0
-1 37 -38 0
1 37 38 0
-1 -37 38 0
39 -8 0
39 -1 0
8 1 -39 0
-39 23 -40 0
39 -23 -40 0
-39 -23 40 0
39 23 40 0
-41 38 0
-41 40 0
-38 -40 41 0
42 41 0
42 38 0
-41 -38 -42 0
43 18 0
43 -22 0
-18 22 -43 0
-44 19 0
-44 43 0
-19 -43 44 0
-45 -4 0
-45 -44 0
4 44 45 0
46 -42 0
46 45 0
42 -45 -46 0
36 46 -47 0
-36 -46 -47 0
36 -46 47 0
-36 46 47 0
-49 -48 0
-49 -10 0
48 10 49 0
50 49 0
50 -45 0
-49 45 -50 0
-51 -15 0
-51 50 0
15 -50 51 0
-47 -51 -52 0
47 51 -52 0
-47 51 52 0
47 -51 52 0
-53 6 0
-53 -52 0
-6 52 53 0
-54 18 0
-54 -39 0
-18 39 54 0
54 -17 -55 0
-54 17 -55 0
54 17 55 0
-54 -17 55 0
-56 31 0
-56 55 0
-31 -55 56 0
57 -7 0
57 -56 0
7 56 -57 0
-58 -57 0
-58 -17 0
57 17 58 0
59 -53 0
59 -58 0
53 58 -59 0
-60 34 0
-60 -15 0
-34 15 60 0
61 -11 0
61 60 0
11 -60 -61 0
62 17 0
62 -9 0
-17 9 -62 0
-63 62 0
-63 62 0
-62 63 0
-61 63 -64 0
61 -63 -64 0
-61 -63 64 0
61 63 64 0
65 21 0
65 -54 0
-21 54 -65 0
65 -8 -66 0
-65 8 -66 0
65 8 66 0
-65 -8 66 0
-11 -15 -67 0
11 15 -67 0
-11 15 67 0
11 -15 67 0
68 -67 0
68 -30 0
67 30 -68 0
-29 7 -69 0
29 -7 -69 0
-29 -7 69 0
29 7 69 0
70 68 0
70 -69 0
-68 69 -70 0
71 70 0
71 26 0
-70 -26 -71 0
-72 71 0
-72 -45 0
-71 45 72 0
-73 -19 0
-73 22 0
19 -22 73 0
74 -20 0
74 -2 0
20 2 -74 0
-73 -74 -75 0
73 74 -75 0
-73 74 75 0
73 -74 75 0
-76 -72 0
-76 75 0
72 -75 76 0
-4 -34 -77 0
4 34 -77 0
-4 34 77 0
4 -34 77 0
18 28 -78 0
-18 -28 -78 0
18 -28 78 0
-18 28 78 0
79 -31 0
79 78 0
31 -78 -79 0
-80 77 0
-80 79 0
-77 -79 80 0
81 -76 0
81 80 0
76 -80 -81 0
82 66 0
82 -81 0
-66 81 -82 0
-64 -82 -83 0
64 82 -83 0
-64 82 83 0
64 -82 83 0
-84 59 0
-84 83 0
-59 -83 84 0
-85 15 0
-85 -16 0
-15 16 85 0
-86 48 0
-86 23 0
-48 -23 86 0
87 48 0
87 86 0
-48 -86 -87 0
88 34 0
88 -87 0
-34 87 -88 0
-89 60 0
-89 -70 0
-60 70 89 0
-90 -88 0
-90 89 0
88 -89 90 0
91 85 0
91 -90 0
-85 90 -91 0
92 -13 0
92 -4 0
13 4 -92 0
-93 -92 0
-93 65 0
92 -65 93 0
33 -31 -94 0
-33 31 -94 0
33 31 94 0
-33 -31 94 0
95 93 0
95 -94 0
-93 94 -95 0
-96 -74 0
-96 -38 0
74 38 96 0
97 96 0
97 20 0
-96 -20 -97 0
-31 33 -98 0
31 -33 -98 0
-31 -33 98 0
31 33 98 0
-99 -54 0
-99 -98 0
54 98 99 0
-100 -97 0
-100 99 0
97 -99 100 0
-95 -100 -101 0
95 100 -101 0
-95 100 101 0
95 -100 101 0
102 91 0
102 -101 0
-91 101 -102 0
-103 28 0
-103 -68 0
-28 68 103 0
104 -45 0
104 103 0
45 -103 -104 0
-17 -4 -105 0
17 4 -105 0
-17 4 105 0
17 -4 105 0
106 -104 0
106 105 0
104 -105 -106 0
-107 10 0
-107 18 0
-10 -18 107 0
108 106 0
108 -107 0
-106 107 -108 0
102 108 -109 0
-102 -108 -109 0
102 -108 109 0
-102 108 109 0
111 50 0
111 -110 0
-50 110 -111 0
112 -109 0
112 111 0
109 -111 -112 0
113 -28 0
113 -38 0
28 38 -113 0
114 96 0
114 34 0
-96 -34 -114 0
49 -87 -115 0
-49 87 -115 0
49 87 115 0
-49 -87 115 0
-116 114 0
-116 115 0
-114 -115 116 0
-117 -113 0
-117 -116 0
113 116 117 0
-118 67 0
-118 13 0
-67 -13 118 0
119 -26 0
119 68 0
26 -68 -119 0
120 -118 0
120 -119 0
118 119 -120 0
-121 20 0
-121 29 0
-20 -29 121 0
-122 -120 0
-122 -121 0
120 121 122 0
123 -117 0
123 122 0
117 -122 -123 0
-124 -112 0
-124 123 0
112 -123 124 0
-84 -124 -125 0
84 124 -125 0
-84 124 125 0
84 -124 125 0
50 112 77 -9 118 0
-83 -68 -53 -92 -56 -81 0
76 -104 8 16 -86 0
-122 -81 51 115 0
-88 -109 -73 0
-80 -57 -39 47 -72 0
-9 -24 -20 75 19 0
54 -74 0
-84 -40 64 -66 -68 0
-47 -83 -115 0
-98 20 0
-113 112 0
-59 63 0
38 73 124 0
-58 12 -33 -16 -115 0
-98 -117 -37 -119 -14 0
77 -119 -47 -30 -109 0
21 -33 97 -103 0
104 -11 -12 -33 19 86 0
-42 106 -72 0
46 -45 0
63 79 -74 53 66 0
63 69 16 -123 0
-120 109 -51 -69 -67 60 0
57 -109 39 -75 -18 5 0
-81 92 1 0
-37 -80 -25 0
117 61 0
-22 21 -47 120 0
112 81 -55 -89 -125 6 0
33 -67 117 -110 111 -112 0
77 53 0
-104 8 36 59 72 7 0
-48 -87 -46 -8 0
40 -120 0
-82 113 -19 50 0
71 94 29 117 -109 66 0
125 -96 -89 0
-1 58 0
-23 104 41 0
22 -42 -30 0
15 -93 12 0
20 116 -34 -55 0
30 21 56 -122 0
-87 -92 -17 0
-106 116 15 -64 107 0
15 107 4 -33 0
1 57 18 119 101 25 0
-12 89 0
100 -21 26 0
-54 96 117 -121 46 118 0
-91 97 102 20 -117 0
-21 -90 0
-121 14 62 0
-101 -118 93 0
35 95 91 -92 0
23 91 -1 0
-90 -15 -116 0
13 81 -28 0
-83 -48 0
44 -83 -70 -102 81 0
-75 -54 0
108 -45 0
-63 -93 95 -83 -85 15 0
72 119 56 122 -22 0
-98 33 91 0
-15 5 -62 -3 -70 0
-100 -13 -34 48 0
-32 100 0
-62 78 123 20 -30 0
-38 -48 -107 71 -91 10 0
24 46 35 124 -67 0
8 -2 61 0
125 0
